# Objective value = 55
WA1n 0
WA1p 0
WA2n 1
WA2p 0
WB1n 0
WB1p 0
WB2n 1
WB2p 0
WC1n 0
WC1p 0
WC2n 1
WC2p 0
WD1n 0
WD1p 0
WD2n 1
WD2p 0
WE1n 2
WE1p 0
WF1n 2
WF1p 0
WF2n 1
WF2p 0
WG1n 2
WG1p 0
WG2n 1
WG2p 0
WH1n 2
WH1p 0
WH2n 1
WH2p 0
WI1n 0
WI1p 9
WI2n 0
WI2p 1
WJ1n 0
WJ1p 12
WT1n 0
WT1p 10
5 7
a 0
b 0
c 0
d 0
e 0
f 0
g 0
h 0
i 0
j 0
k 0
l 0
m 0
n 0
o 0
p 1
q 1
r 1
s 1
